
$ Database file written 2023-10-30
$ From database: Shuang Lin                    
 ELEMENT /-   ELECTRON_GAS              0.0000E+00  0.0000E+00  0.0000E+00!
 ELEMENT VA   VACUUM                    0.0000E+00  0.0000E+00  0.0000E+00!
 ELEMENT AL   FCC_A1                    2.6982E+01  4.5773E+03  2.8322E+01!
 ELEMENT CO   HCP_A3                    5.8933E+01  0.0000E+00  0.0000E+00!
 ELEMENT CR   BCC_A2                    5.1996E+01  4.0500E+03  2.3560E+01!
 ELEMENT MO   BCC_A2                    9.5940E+01  4.5890E+03  2.8560E+01!
 ELEMENT TI   HCP_A3                    4.7880E+01  4.8100E+03  3.0648E+01!
 ELEMENT V    BCC_A2                    5.0941E+01  4.5070E+03  3.0890E+01!
 
 
 FUNCTION GBCCAL    298.15 -4.813*T+GHSERAL#+10083; 2900 N !
 FUNCTION GFCCAL    298.15 +GHSERAL#; 2900 N !
 FUNCTION GLIQAL    298.15 +7.9337E-20*T**7-11.841867*T+GHSERAL#+11005.029; 
     700 Y
      +7.9337E-20*T**7-11.841867*T+GHSERAL#+11005.03; 933.47 Y
      -31.748192*T*LN(T)+177.430178*T-795.996; 2900 N !
 FUNCTION GBCCCO    298.15 -.7138*T+GHSERCO#+2938; 6000 N !
 FUNCTION GFCCCO    298.15 -.615248*T+GHSERCO#+427.591; 1768 Y
      -.615253*T+GHSERCO#+427.591; 6000 N !
 FUNCTION GLIQCO    298.15 -2.19801E-21*T**7-8.931932*T+GHSERCO#+15085.037; 
     1768 Y
      -40.5*T*LN(T)+243.599944*T-846.61; 6000 N !
 FUNCTION GBCCCR    298.15 +GHSERCR#; 6000 N !
 FUNCTION GFCCCR    298.15 +.163*T+GHSERCR#+7284; 6000 N !
 FUNCTION GHSERCR   298.15 -1.47721E-06*T**3+.00189435*T**2-26.908*T*LN(T)
     +157.48*T-8856.94+139250*T**(-1); 2180 Y
      -50*T*LN(T)+344.18*T-34869.344-2.88526E+32*T**(-9); 6000 N !
 FUNCTION GLIQCR    298.15 +2.37615E-21*T**7-11.420225*T+GHSERCR#+24339.955; 
     2180 Y
      -50*T*LN(T)+335.616316*T-16459.984; 6000 N !
 FUNCTION GBCCMO    298.15 +GHSERMO#; 5000 N !
 FUNCTION GFCCMO    298.15 +.63*T+GHSERMO#+15200; 5000 N !
 FUNCTION GLIQMO    298.15 +4.24519E-22*T**7-14.694912*T+GHSERMO#+41831.347; 
     2896 Y
      -42.63829*T*LN(T)+271.6697*T+3538.963; 5000 N !
 FUNCTION GBCCTI    298.15 -2.78803E-07*T**3-6.63845E-04*T**2
     -25.5768*T*LN(T)+134.71418*T-1272.064+7208*T**(-1); 1155 Y
      -8.4534E-07*T**3+.00121707*T**2-22.3771*T*LN(T)+105.366379*T+6667.385
     -2002750*T**(-1); 1941 Y
      +1.228863E-06*T**3-.02200832*T**2+19.0900905*T*LN(T)-182.426471*T
     +26483.26+1400501*T**(-1); 4000 N !
 FUNCTION GFCCTI    298.15 -.1*T+GHSERTI#+6000; 4000 N !
 FUNCTION GHCPTI    298.15 +GHSERTI#; 4000 N !
 FUNCTION GHSERTI   298.15 +1.06716E-07*T**3-.004777975*T**2-23.9933*T*LN(T)
     +133.615208*T-8059.921+72636*T**(-1); 900 Y
      -9.0876E-08*T**3-.0042033*T**2-23.9887*T*LN(T)+132.988068*T-7811.815
     +42680*T**(-1); 1155 Y
      +2.02715E-07*T**3-.0081465*T**2-14.9466*T*LN(T)+66.976538*T+908.837
     -1477660*T**(-1); 1941 Y
      -3.04747E-07*T**3+.008204849*T**2-87.2182461*T*LN(T)+638.806871*T
     -124526.786+36699805*T**(-1); 4000 N !
 FUNCTION GLIQTI    298.15 -6.980938*T+GHSERTI#+12194.415; 900 Y
      -6.980938*T+GHSERTI#+12194.416; 1300 Y
      +1.2457117E-05*T**3-.163409355*T**2+342.059267*T*LN(T)-2554.0225*T
     +369519.198-67034516*T**(-1); 1941 Y
      -46.29*T*LN(T)+298.7367*T-19887.066; 4000 N !
 FUNCTION GBCCV     298.15 +GHSERVV#; 4000 N !
 FUNCTION GFCCV     298.15 +1.7*T+GHSERVV#+7500; 4000 N !
 FUNCTION GHCPV     298.15 +2.4*T+GHSERVV#+4000; 4000 N !
 FUNCTION GHSERVV   298.15 +1.2175E-07*T**3-.003098*T**2-24.134*T*LN(T)
     +133.346053*T-7930.43+69460*T**(-1); 790 Y
      -6.8E-07*T**3+6.25E-05*T**2-25.9*T*LN(T)+143.291093*T-7967.842; 2183 Y
      -47.43*T*LN(T)+321.140783*T-41689.864+6.44389E+31*T**(-9); 4000 N !
 FUNCTION GLIQV     298.15 -5.19136E-22*T**7-9.455552*T+GHSERVV#+20764.117; 
     2183 Y
      -47.43*T*LN(T)+311.055983*T-19617.51; 4000 N !
 FUNCTION GHSERAL   298.15 -8.77664E-07*T**3-.001884662*T**2
     -24.3671976*T*LN(T)+137.093038*T-7976.15+74092*T**(-1); 700 Y
      -5.764227E-06*T**3+.018531982*T**2-38.5844296*T*LN(T)+223.048446*T
     -11276.24+74092*T**(-1); 933.47 Y
      -31.748192*T*LN(T)+188.684153*T-11278.378-1.230524E+28*T**(-9); 2900 N 
     !
 FUNCTION GHSERCO   298.15 -1.7348E-07*T**3-.002654739*T**2-25.0861*T*LN(T)
     +133.36601*T+310.241+72527*T**(-1); 1768 Y
      -40.5*T*LN(T)+253.28374*T-17197.666+9.3488E+30*T**(-9); 6000 N !
 FUNCTION GHCPAL    298.15 -1.8*T+GHSERAL#+5481; 2900 N !
 FUNCTION GSIGMAAL  298.15 +0.0; 6000 N !
 FUNCTION GSIGMACR  298.15 +0.0; 6000 N !
 FUNCTION QQ1008    298.15 +0.0; 6000 N !
 FUNCTION QQ1007    298.15 +0.0; 6000 N !
 FUNCTION GHSERMO   298.15 -1.30927E-10*T**4+5.66283E-07*T**3
     -.003443396*T**2-23.56414*T*LN(T)+131.9197*T-7746.302+65812*T**(-1); 
     2896 Y
      -42.63829*T*LN(T)+283.559746*T-30556.41-4.849315E+33*T**(-9); 5000 N !
 FUNCTION FF740010  298.15 +20.8837532; 6000 N !
 FUNCTION FF740000  298.15 -140425.75; 6000 N !
 FUNCTION FF740011  298.15 +50.865149; 6000 N !
 FUNCTION FF740001  298.15 -268058.624; 6000 N !
 FUNCTION FF740016  298.15 +14.0551506; 6000 N !
 FUNCTION FF740015  298.15 -69949.4719; 6000 N !
 FUNCTION FF740018  298.15 +18.1661334; 6000 N !
 FUNCTION FF740017  298.15 -56592.7892; 6000 N !
 FUNCTION FF740020  298.15 +17.1681572; 6000 N !
 FUNCTION FF740019  298.15 -13162.3109; 6000 N !
 FUNCTION FF740002  298.15 -61389.4908; 6000 N !
 FUNCTION FF740004  298.15 -47124.5158; 6000 N !
 FUNCTION FF740013  298.15 -.536813355; 6000 N !
 FUNCTION FF740003  298.15 -176093.576; 6000 N !
 FUNCTION FF740005  298.15 -82795.5119; 6000 N !
 FUNCTION FF740022  298.15 +21.235622; 6000 N !
 FUNCTION FF740021  298.15 -46118.185; 6000 N !
 FUNCTION FF740023  298.15 +13.5484631; 6000 N !
 FUNCTION FF740024  298.15 -54.0284218; 6000 N !
 FUNCTION FF740008  298.15 -8978.8; 6000 N !
 FUNCTION FF740014  298.15 +3.52274071; 6000 N !
 FUNCTION FF740007  298.15 -51929.0066; 6000 N !
 FUNCTION GCOBCC    298.15 +0.0; 6000 N !
 FUNCTION GCOFCC    298.15 +0.0; 6000 N !
 FUNCTION GMOFCC    298.15 +0.0; 6000 N !
 FUNCTION GCOLIQ    298.15 +0.0; 6000 N !
 FUNCTION GMOLIQ    298.15 +0.0; 6000 N !
 FUNCTION BCC_A2    298.15 +0.0; 6000 N !
 FUNCTION UN_ASS 298.15 +0; 300 N !
 
 TYPE_DEFINITION % SEQ *!
 DEFINE_SYSTEM_DEFAULT ELEMENT 2 !
 DEFAULT_COMMAND DEF_SYS_ELEMENT VA /- !


 PHASE AL11CR4  %  2 4   11 !
    CONSTITUENT AL11CR4  :CR : AL :  !

   PARAMETER G(AL11CR4,CR:AL;0)           298.15 +11*GHSERAL#+4*GHSERCR#
  -292000; 6000 N REF0 !


 PHASE AL12MO  %  2 12   1 !
    CONSTITUENT AL12MO  :AL : MO :  !

   PARAMETER G(AL12MO,AL:MO;0)            298.15 +12*GHSERAL#+GHSERMO#
  -146292.986+32*T; 6000 N REF0 !


 PHASE AL13CO4  %  2 13   4 !
    CONSTITUENT AL13CO4  :AL : CO :  !

   PARAMETER G(AL13CO4,AL:CO;0)           298.15 -659712+125*T+13*GHSERAL#
  +4*GHSERCO#; 6000 N REF0 !


 PHASE AL17MO4  %  2 17   4 !
    CONSTITUENT AL17MO4  :AL : MO :  !

   PARAMETER G(AL17MO4,AL:MO;0)           298.15 +17*GHSERAL#+4*GHSERMO#
  -592950.517+158.690172*T; 6000 N REF0 !


 PHASE AL21V2_227  %  2 21   2 !
    CONSTITUENT AL21V2_227  :AL : V :  !

   PARAMETER G(AL21V2_227,AL:V;0)         298.15 +FF740010#*T+FF740000#
  +21*GHSERAL#+2*GHSERVV#; 6000 N REF0 !


 PHASE AL22MO5  %  2 22   5 !
    CONSTITUENT AL22MO5  :AL : MO :  !

   PARAMETER G(AL22MO5,AL:MO;0)           298.15 +22*GHSERAL#+5*GHSERMO#
  -740721.623+195.980411*T; 6000 N REF0 !


 PHASE AL23V4_194  %  2 23   4 !
    CONSTITUENT AL23V4_194  :AL : V :  !

   PARAMETER G(AL23V4_194,AL:V;0)         298.15 +FF740011#*T+FF740001#
  +23*GHSERAL#+4*GHSERVV#; 6000 N REF0 !


 PHASE AL2TI  %  2 2   1 !
    CONSTITUENT AL2TI  :AL,CO,CR,MO,TI,V : AL,CO,CR,MO,TI,V :  !

   PARAMETER G(AL2TI,AL:AL;0)             298.15 +3*GHSERAL#+15000; 6000 N 
  REF0 !
       PARA G(AL2TI,CO:AL;0) 298.15 +0; 6000 N!
       PARA G(AL2TI,CR:AL;0) 298.15 +0; 6000 N!
       PARA G(AL2TI,MO:AL;0) 298.15 +0; 6000 N!
   PARAMETER G(AL2TI,TI:AL;0)             298.15 +GHSERAL#+2*GHSERTI#; 6000 
  N REF0 !
       PARA G(AL2TI,V:AL;0) 298.15 +0; 6000 N!
       PARA G(AL2TI,AL:CO;0) 298.15 +0; 6000 N!
       PARA G(AL2TI,CO:CO;0) 298.15 +0; 6000 N!
       PARA G(AL2TI,CR:CO;0) 298.15 +0; 6000 N!
       PARA G(AL2TI,MO:CO;0) 298.15 +0; 6000 N!
       PARA G(AL2TI,TI:CO;0) 298.15 +0; 6000 N!
       PARA G(AL2TI,V:CO;0) 298.15 +0; 6000 N!
       PARA G(AL2TI,AL:CR;0) 298.15 +0; 6000 N!
       PARA G(AL2TI,CO:CR;0) 298.15 +0; 6000 N!
       PARA G(AL2TI,CR:CR;0) 298.15 +0; 6000 N!
       PARA G(AL2TI,MO:CR;0) 298.15 +0; 6000 N!
       PARA G(AL2TI,TI:CR;0) 298.15 +0; 6000 N!
       PARA G(AL2TI,V:CR;0) 298.15 +0; 6000 N!
       PARA G(AL2TI,AL:MO;0) 298.15 +0; 6000 N!
       PARA G(AL2TI,CO:MO;0) 298.15 +0; 6000 N!
       PARA G(AL2TI,CR:MO;0) 298.15 +0; 6000 N!
       PARA G(AL2TI,MO:MO;0) 298.15 +0; 6000 N!
       PARA G(AL2TI,TI:MO;0) 298.15 +0; 6000 N!
       PARA G(AL2TI,V:MO;0) 298.15 +0; 6000 N!
   PARAMETER G(AL2TI,AL:TI;0)             298.15 +28.124*T+2*GHSERAL#
  +GHSERTI#-117175; 6000 N REF0 !
       PARA G(AL2TI,CO:TI;0) 298.15 +0; 6000 N!
       PARA G(AL2TI,CR:TI;0) 298.15 +0; 6000 N!
       PARA G(AL2TI,MO:TI;0) 298.15 +0; 6000 N!
   PARAMETER G(AL2TI,TI:TI;0)             298.15 +3*GHSERTI#+15000; 6000 N 
  REF0 !
       PARA G(AL2TI,V:TI;0) 298.15 +0; 6000 N!
       PARA G(AL2TI,AL:V;0) 298.15 +0; 6000 N!
       PARA G(AL2TI,CO:V;0) 298.15 +0; 6000 N!
       PARA G(AL2TI,CR:V;0) 298.15 +0; 6000 N!
       PARA G(AL2TI,MO:V;0) 298.15 +0; 6000 N!
       PARA G(AL2TI,TI:V;0) 298.15 +0; 6000 N!
       PARA G(AL2TI,V:V;0) 298.15 +0; 6000 N!
   PARAMETER G(AL2TI,AL,TI:AL;0)          298.15 +14.098*T-50997; 6000 N 
  REF0 !
   PARAMETER G(AL2TI,AL:AL,TI;0)          298.15 +14.098*T-50997; 6000 N 
  REF0 !
   PARAMETER G(AL2TI,TI:AL,TI;0)          298.15 +12.733*T-65359; 6000 N 
  REF0 !
   PARAMETER G(AL2TI,AL,TI:TI;0)          298.15 +12.733*T-65359; 6000 N 
  REF0 !


 PHASE AL3CO  %  2 3   1 !
    CONSTITUENT AL3CO  :AL : CO :  !

   PARAMETER G(AL3CO,AL:CO;0)             298.15 -164946+32.725*T+3*GHSERAL#
  +GHSERCO#; 6000 N REF0 !


 PHASE AL3M  %  2 3   1 !
    CONSTITUENT AL3M  :AL,CO,CR,MO,TI,V : AL,CO,CR,MO,TI,V :  !

   PARAMETER G(AL3M,AL:AL;0)              298.15 +4*GHSERAL#+80000; 6000 N 
  REF0 !
       PARA G(AL3M,CO:AL;0) 298.15 +0; 6000 N!
       PARA G(AL3M,CR:AL;0) 298.15 +0; 6000 N!
       PARA G(AL3M,MO:AL;0) 298.15 +0; 6000 N!
   PARAMETER G(AL3M,TI:AL;0)              298.15 +GHSERAL#+3*GHSERTI#-72097; 
  6000 N REF0 !
       PARA G(AL3M,V:AL;0) 298.15 +0; 6000 N!
       PARA G(AL3M,AL:CO;0) 298.15 +0; 6000 N!
       PARA G(AL3M,CO:CO;0) 298.15 +0; 6000 N!
       PARA G(AL3M,CR:CO;0) 298.15 +0; 6000 N!
       PARA G(AL3M,MO:CO;0) 298.15 +0; 6000 N!
       PARA G(AL3M,TI:CO;0) 298.15 +0; 6000 N!
       PARA G(AL3M,V:CO;0) 298.15 +0; 6000 N!
       PARA G(AL3M,AL:CR;0) 298.15 +0; 6000 N!
       PARA G(AL3M,CO:CR;0) 298.15 +0; 6000 N!
       PARA G(AL3M,CR:CR;0) 298.15 +0; 6000 N!
       PARA G(AL3M,MO:CR;0) 298.15 +0; 6000 N!
       PARA G(AL3M,TI:CR;0) 298.15 +0; 6000 N!
       PARA G(AL3M,V:CR;0) 298.15 +0; 6000 N!
       PARA G(AL3M,AL:MO;0) 298.15 +0; 6000 N!
       PARA G(AL3M,CO:MO;0) 298.15 +0; 6000 N!
       PARA G(AL3M,CR:MO;0) 298.15 +0; 6000 N!
       PARA G(AL3M,MO:MO;0) 298.15 +0; 6000 N!
       PARA G(AL3M,TI:MO;0) 298.15 +0; 6000 N!
       PARA G(AL3M,V:MO;0) 298.15 +0; 6000 N!
   PARAMETER G(AL3M,AL:TI;0)              298.15 +35.088*T+3*GHSERAL#
  +GHSERTI#-143733; 6000 N REF0 !
       PARA G(AL3M,CO:TI;0) 298.15 +0; 6000 N!
       PARA G(AL3M,CR:TI;0) 298.15 +0; 6000 N!
       PARA G(AL3M,MO:TI;0) 298.15 +0; 6000 N!
   PARAMETER G(AL3M,TI:TI;0)              298.15 +4*GHSERTI#+80000; 6000 N 
  REF0 !
       PARA G(AL3M,V:TI;0) 298.15 +0; 6000 N!
       PARA G(AL3M,AL:V;0) 298.15 +0; 6000 N!
       PARA G(AL3M,CO:V;0) 298.15 +0; 6000 N!
       PARA G(AL3M,CR:V;0) 298.15 +0; 6000 N!
       PARA G(AL3M,MO:V;0) 298.15 +0; 6000 N!
       PARA G(AL3M,TI:V;0) 298.15 +0; 6000 N!
       PARA G(AL3M,V:V;0) 298.15 +0; 6000 N!
   PARAMETER G(AL3M,AL,TI:AL;0)           298.15 -67583; 6000 N REF0 !
   PARAMETER G(AL3M,AL:AL,TI;0)           298.15 -67583; 6000 N REF0 !
   PARAMETER G(AL3M,TI:AL,TI;0)           298.15 -93086; 6000 N REF0 !
   PARAMETER G(AL3M,AL,TI:TI;0)           298.15 -93086; 6000 N REF0 !


 PHASE AL3MO  %  2 3   1 !
    CONSTITUENT AL3MO  :AL : MO :  !

   PARAMETER G(AL3MO,AL:MO;0)             298.15 +3*GHSERAL#+GHSERMO#
  -143710.769+40.9417405*T; 6000 N REF0 !


 PHASE AL3TI_L  %  2 3   1 !
    CONSTITUENT AL3TI_L  :AL,CO,CR,MO,TI,V : AL,CO,CR,MO,TI,V :  !

   PARAMETER G(AL3TI_L,AL:AL;0)           298.15 +4*GHSERAL#+80000; 6000 N 
  REF0 !
       PARA G(AL3TI_L,CO:AL;0) 298.15 +0; 6000 N!
       PARA G(AL3TI_L,CR:AL;0) 298.15 +0; 6000 N!
       PARA G(AL3TI_L,MO:AL;0) 298.15 +0; 6000 N!
   PARAMETER G(AL3TI_L,TI:AL;0)           298.15 +GHSERAL#+3*GHSERTI#-53950; 
  6000 N REF0 !
       PARA G(AL3TI_L,V:AL;0) 298.15 +0; 6000 N!
       PARA G(AL3TI_L,AL:CO;0) 298.15 +0; 6000 N!
       PARA G(AL3TI_L,CO:CO;0) 298.15 +0; 6000 N!
       PARA G(AL3TI_L,CR:CO;0) 298.15 +0; 6000 N!
       PARA G(AL3TI_L,MO:CO;0) 298.15 +0; 6000 N!
       PARA G(AL3TI_L,TI:CO;0) 298.15 +0; 6000 N!
       PARA G(AL3TI_L,V:CO;0) 298.15 +0; 6000 N!
       PARA G(AL3TI_L,AL:CR;0) 298.15 +0; 6000 N!
       PARA G(AL3TI_L,CO:CR;0) 298.15 +0; 6000 N!
       PARA G(AL3TI_L,CR:CR;0) 298.15 +0; 6000 N!
       PARA G(AL3TI_L,MO:CR;0) 298.15 +0; 6000 N!
       PARA G(AL3TI_L,TI:CR;0) 298.15 +0; 6000 N!
       PARA G(AL3TI_L,V:CR;0) 298.15 +0; 6000 N!
       PARA G(AL3TI_L,AL:MO;0) 298.15 +0; 6000 N!
       PARA G(AL3TI_L,CO:MO;0) 298.15 +0; 6000 N!
       PARA G(AL3TI_L,CR:MO;0) 298.15 +0; 6000 N!
       PARA G(AL3TI_L,MO:MO;0) 298.15 +0; 6000 N!
       PARA G(AL3TI_L,TI:MO;0) 298.15 +0; 6000 N!
       PARA G(AL3TI_L,V:MO;0) 298.15 +0; 6000 N!
   PARAMETER G(AL3TI_L,AL:TI;0)           298.15 +38.395*T+3*GHSERAL#
  +GHSERTI#-147620; 6000 N REF0 !
       PARA G(AL3TI_L,CO:TI;0) 298.15 +0; 6000 N!
       PARA G(AL3TI_L,CR:TI;0) 298.15 +0; 6000 N!
       PARA G(AL3TI_L,MO:TI;0) 298.15 +0; 6000 N!
   PARAMETER G(AL3TI_L,TI:TI;0)           298.15 +4*GHSERTI#+80000; 6000 N 
  REF0 !
       PARA G(AL3TI_L,V:TI;0) 298.15 +0; 6000 N!
       PARA G(AL3TI_L,AL:V;0) 298.15 +0; 6000 N!
       PARA G(AL3TI_L,CO:V;0) 298.15 +0; 6000 N!
       PARA G(AL3TI_L,CR:V;0) 298.15 +0; 6000 N!
       PARA G(AL3TI_L,MO:V;0) 298.15 +0; 6000 N!
       PARA G(AL3TI_L,TI:V;0) 298.15 +0; 6000 N!
       PARA G(AL3TI_L,V:V;0) 298.15 +0; 6000 N!
   PARAMETER G(AL3TI_L,AL,TI:AL;0)        298.15 +26.614*T-79752; 6000 N 
  REF0 !
   PARAMETER G(AL3TI_L,AL:AL,TI;0)        298.15 +26.614*T-79752; 6000 N 
  REF0 !
   PARAMETER G(AL3TI_L,TI:AL,TI;0)        298.15 -118520; 6000 N REF0 !
   PARAMETER G(AL3TI_L,AL,TI:TI;0)        298.15 -118520; 6000 N REF0 !


 PHASE AL45CR7  %  2 45   7 !
    CONSTITUENT AL45CR7  :AL : CR :  !

   PARAMETER G(AL45CR7,AL:CR;0)           298.15 +49.8576*T+45*GHSERAL#
  +7*GHSERCR#-671997.04; 6000 N REF0 !


 PHASE AL45CR7_12  %  2 7   1 !
    CONSTITUENT AL45CR7_12  :AL : V :  !

   PARAMETER G(AL45CR7_12,AL:V;0)         298.15 +FF740016#*T+FF740015#
  +7*GHSERAL#+GHSERVV#; 6000 N REF0 !


 PHASE AL4CR  %  2 1   4 !
    CONSTITUENT AL4CR  :CR : AL :  !

   PARAMETER G(AL4CR,CR:AL;0)             298.15 +3.892*T+4*GHSERAL#
  +GHSERCR#-84930.41; 6000 N REF0 !


 PHASE AL4MO  %  2 4   1 !
    CONSTITUENT AL4MO  :AL : MO :  !

   PARAMETER G(AL4MO,AL:MO;0)             298.15 +4*GHSERAL#+GHSERMO#
  -141877.438+35.4373736*T; 6000 N REF0 !


 PHASE AL5CO2  %  2 5   2 !
    CONSTITUENT AL5CO2  :AL : CO :  !

   PARAMETER G(AL5CO2,AL:CO;0)            298.15 -329990+73.45*T+5*GHSERAL#
  +2*GHSERCO#; 6000 N REF0 !


 PHASE AL5CR  %  2 5   1 !
    CONSTITUENT AL5CR  :AL : CR :  !

   PARAMETER G(AL5CR,AL:CR;0)             298.15 +4.5348*T+5*GHSERAL#
  +GHSERCR#-91003.14; 6000 N REF0 !


 PHASE AL5FE4  %  1  1.0  !
    CONSTITUENT AL5FE4  :AL,CO,CR,MO,TI,V :  !

   PARAMETER G(AL5FE4,AL;0)               298.15 -4.813*T+GHSERAL#+12178.9; 
  6000 N REF0 !
       PARA G(AL5FE4,CO;0) 298.15 +0; 6000 N!
       PARA G(AL5FE4,CR;0) 298.15 +0; 6000 N!
       PARA G(AL5FE4,MO;0) 298.15 +0; 6000 N!
       PARA G(AL5FE4,TI;0) 298.15 +0; 6000 N!
       PARA G(AL5FE4,V;0) 298.15 +0; 6000 N!


 PHASE AL5MO  %  2 5   1 !
    CONSTITUENT AL5MO  :AL : MO :  !

   PARAMETER G(AL5MO,AL:MO;0)             298.15 +5*GHSERAL#+GHSERMO#
  -147852.738+37.7948482*T; 6000 N REF0 !


 PHASE AL5TI2  %  2 5   2 !
    CONSTITUENT AL5TI2  :AL,TI : AL,TI :  !

   PARAMETER G(AL5TI2,AL:AL;0)            298.15 +7*GHSERAL#+60000; 6000 N 
  REF0 !
   PARAMETER G(AL5TI2,TI:AL;0)            298.15 +2*GHSERAL#+5*GHSERTI#
  +987760; 6000 N REF0 !
   PARAMETER G(AL5TI2,AL:TI;0)            298.15 +67.463*T+5*GHSERAL#
  +2*GHSERTI#-264790; 6000 N REF0 !
   PARAMETER G(AL5TI2,TI:TI;0)            298.15 +7*GHSERTI#+55000; 6000 N 
  REF0 !
   PARAMETER G(AL5TI2,AL,TI:AL;0)         298.15 -108171; 6000 N REF0 !
   PARAMETER G(AL5TI2,AL:AL,TI;0)         298.15 -108171; 6000 N REF0 !
   PARAMETER G(AL5TI2,TI:AL,TI;0)         298.15 +10.101*T-232241; 6000 N 
  REF0 !
   PARAMETER G(AL5TI2,AL,TI:TI;0)         298.15 +10.101*T-232241; 6000 N 
  REF0 !


 PHASE AL63MO37  %  2 63   37 !
    CONSTITUENT AL63MO37  :AL : MO :  !

   PARAMETER G(AL63MO37,AL:MO;0)          298.15 +63*GHSERAL#+37*GHSERMO#
  -1901739.23+43.1008259*T; 6000 N REF0 !


 PHASE AL8MO3  %  2 8   3 !
    CONSTITUENT AL8MO3  :AL : MO :  !

   PARAMETER G(AL8MO3,AL:MO;0)            298.15 +8*GHSERAL#+3*GHSERMO#
  -432300+128.341056*T; 6000 N REF0 !


 PHASE AL9CO2  %  2 9   2 !
    CONSTITUENT AL9CO2  :AL : CO :  !

   PARAMETER G(AL9CO2,AL:CO;0)            298.15 -329700+53.14*T+9*GHSERAL#
  +2*GHSERCO#; 6000 N REF0 !


 PHASE ALCR2  %  2 1   2 !
    CONSTITUENT ALCR2  :AL,CO,CR,MO,TI,V : AL,CO,CR,MO,TI,V :  !

   PARAMETER G(ALCR2,AL:AL;0)             298.15 +3*GHSERAL#+10000; 6000 N 
  REF0 !
       PARA G(ALCR2,CO:AL;0) 298.15 +0; 6000 N!
   PARAMETER G(ALCR2,CR:AL;0)             298.15 +16.836*T+2*GHSERAL#
  +GHSERCR#+56515.3161; 6000 N REF0 !
       PARA G(ALCR2,MO:AL;0) 298.15 +0; 6000 N!
       PARA G(ALCR2,TI:AL;0) 298.15 +0; 6000 N!
       PARA G(ALCR2,V:AL;0) 298.15 +0; 6000 N!
       PARA G(ALCR2,AL:CO;0) 298.15 +0; 6000 N!
       PARA G(ALCR2,CO:CO;0) 298.15 +0; 6000 N!
       PARA G(ALCR2,CR:CO;0) 298.15 +0; 6000 N!
       PARA G(ALCR2,MO:CO;0) 298.15 +0; 6000 N!
       PARA G(ALCR2,TI:CO;0) 298.15 +0; 6000 N!
       PARA G(ALCR2,V:CO;0) 298.15 +0; 6000 N!
   PARAMETER G(ALCR2,AL:CR;0)             298.15 -16.836*T+GHSERAL#
  +2*GHSERCR#-36515.316; 6000 N REF0 !
       PARA G(ALCR2,CO:CR;0) 298.15 +0; 6000 N!
   PARAMETER G(ALCR2,CR:CR;0)             298.15 +0.0; 6000 N REF0 !
       PARA G(ALCR2,MO:CR;0) 298.15 +0; 6000 N!
       PARA G(ALCR2,TI:CR;0) 298.15 +0; 6000 N!
       PARA G(ALCR2,V:CR;0) 298.15 +0; 6000 N!
       PARA G(ALCR2,AL:MO;0) 298.15 +0; 6000 N!
       PARA G(ALCR2,CO:MO;0) 298.15 +0; 6000 N!
       PARA G(ALCR2,CR:MO;0) 298.15 +0; 6000 N!
       PARA G(ALCR2,MO:MO;0) 298.15 +0; 6000 N!
       PARA G(ALCR2,TI:MO;0) 298.15 +0; 6000 N!
       PARA G(ALCR2,V:MO;0) 298.15 +0; 6000 N!
       PARA G(ALCR2,AL:TI;0) 298.15 +0; 6000 N!
       PARA G(ALCR2,CO:TI;0) 298.15 +0; 6000 N!
       PARA G(ALCR2,CR:TI;0) 298.15 +0; 6000 N!
       PARA G(ALCR2,MO:TI;0) 298.15 +0; 6000 N!
       PARA G(ALCR2,TI:TI;0) 298.15 +0; 6000 N!
       PARA G(ALCR2,V:TI;0) 298.15 +0; 6000 N!
       PARA G(ALCR2,AL:V;0) 298.15 +0; 6000 N!
       PARA G(ALCR2,CO:V;0) 298.15 +0; 6000 N!
       PARA G(ALCR2,CR:V;0) 298.15 +0; 6000 N!
       PARA G(ALCR2,MO:V;0) 298.15 +0; 6000 N!
       PARA G(ALCR2,TI:V;0) 298.15 +0; 6000 N!
       PARA G(ALCR2,V:V;0) 298.15 +0; 6000 N!
   PARAMETER G(ALCR2,*:AL,CR;0)           298.15 -47773.242; 6000 N REF0 !
   PARAMETER G(ALCR2,AL,CR:*;0)           298.15 -11851.395; 6000 N REF0 !


 PHASE ALMO3  %  2 .75   .25 !
    CONSTITUENT ALMO3  :AL,CO,CR,MO,TI,V : AL,CO,CR,MO,TI,V :  !

   PARAMETER G(ALMO3,AL:AL;0)             298.15 +GHSERAL#+10000; 6000 N 
  REF0 !
       PARA G(ALMO3,CO:AL;0) 298.15 +0; 6000 N!
       PARA G(ALMO3,CR:AL;0) 298.15 +0; 6000 N!
   PARAMETER G(ALMO3,MO:AL;0)             298.15 +.75*GHSERMO#+.25*GHSERAL#
  -21180.9741+3.3394361*T; 6000 N REF0 !
       PARA G(ALMO3,TI:AL;0) 298.15 +0; 6000 N!
       PARA G(ALMO3,V:AL;0) 298.15 +0; 6000 N!
       PARA G(ALMO3,AL:CO;0) 298.15 +0; 6000 N!
       PARA G(ALMO3,CO:CO;0) 298.15 +0; 6000 N!
       PARA G(ALMO3,CR:CO;0) 298.15 +0; 6000 N!
       PARA G(ALMO3,MO:CO;0) 298.15 +0; 6000 N!
       PARA G(ALMO3,TI:CO;0) 298.15 +0; 6000 N!
       PARA G(ALMO3,V:CO;0) 298.15 +0; 6000 N!
       PARA G(ALMO3,AL:CR;0) 298.15 +0; 6000 N!
       PARA G(ALMO3,CO:CR;0) 298.15 +0; 6000 N!
       PARA G(ALMO3,CR:CR;0) 298.15 +0; 6000 N!
       PARA G(ALMO3,MO:CR;0) 298.15 +0; 6000 N!
       PARA G(ALMO3,TI:CR;0) 298.15 +0; 6000 N!
       PARA G(ALMO3,V:CR;0) 298.15 +0; 6000 N!
   PARAMETER G(ALMO3,AL:MO;0)             298.15 +.75*GHSERAL#+.25*GHSERMO#
  +10000; 6000 N REF0 !
       PARA G(ALMO3,CO:MO;0) 298.15 +0; 6000 N!
       PARA G(ALMO3,CR:MO;0) 298.15 +0; 6000 N!
   PARAMETER G(ALMO3,MO:MO;0)             298.15 +GHSERMO#+10000; 6000 N 
  REF0 !
       PARA G(ALMO3,TI:MO;0) 298.15 +0; 6000 N!
       PARA G(ALMO3,V:MO;0) 298.15 +0; 6000 N!
       PARA G(ALMO3,AL:TI;0) 298.15 +0; 6000 N!
       PARA G(ALMO3,CO:TI;0) 298.15 +0; 6000 N!
       PARA G(ALMO3,CR:TI;0) 298.15 +0; 6000 N!
       PARA G(ALMO3,MO:TI;0) 298.15 +0; 6000 N!
       PARA G(ALMO3,TI:TI;0) 298.15 +0; 6000 N!
       PARA G(ALMO3,V:TI;0) 298.15 +0; 6000 N!
       PARA G(ALMO3,AL:V;0) 298.15 +0; 6000 N!
       PARA G(ALMO3,CO:V;0) 298.15 +0; 6000 N!
       PARA G(ALMO3,CR:V;0) 298.15 +0; 6000 N!
       PARA G(ALMO3,MO:V;0) 298.15 +0; 6000 N!
       PARA G(ALMO3,TI:V;0) 298.15 +0; 6000 N!
       PARA G(ALMO3,V:V;0) 298.15 +0; 6000 N!


 TYPE_DEFINITION & GES A_P_D ALTI MAGNETIC  -1.0    4.00000E-01 !
 PHASE ALTI  %&  2 1   1 !
    CONSTITUENT ALTI  :AL,CO,CR,MO,TI,V : AL,CO,CR,MO,TI,V :  !

   PARAMETER G(ALTI,AL:AL;0)              298.15 +2*GHSERAL#+4; 6000 N REF0 !
       PARA G(ALTI,CO:AL;0) 298.15 +0; 6000 N!
       PARA G(ALTI,CR:AL;0) 298.15 +0; 6000 N!
       PARA G(ALTI,MO:AL;0) 298.15 +0; 6000 N!
   PARAMETER G(ALTI,TI:AL;0)              298.15 +14.722*T+GFCCTI#+GHSERAL#
  -81008; 6000 N REF0 !
       
   PARAMETER G(ALTI,AL:TI;0)              298.15 +14.722*T+GFCCTI#+GHSERAL#
  -81008; 6000 N REF0 !
   PARAMETER G(ALTI,TI:TI;0)              298.15 +2*GFCCTI#; 6000 N REF0 !
  
   PARAMETER G(ALTI,AL,TI:AL;0)           298.15 +41.695*T-88993; 6000 N 
  REF0 !
   PARAMETER G(ALTI,AL,TI:AL;1)           298.15 +27363; 6000 N REF0 !
   PARAMETER G(ALTI,AL,TI:AL;2)           298.15 +42189; 6000 N REF0 !
   PARAMETER G(ALTI,AL:AL,TI;0)           298.15 +41.695*T-88993; 6000 N 
  REF0 !
   PARAMETER G(ALTI,AL:AL,TI;1)           298.15 +27363; 6000 N REF0 !
   PARAMETER G(ALTI,AL:AL,TI;2)           298.15 +42189; 6000 N REF0 !
   PARAMETER G(ALTI,TI:AL,TI;0)           298.15 +6.952*T-31963; 6000 N REF0 !
   PARAMETER G(ALTI,AL,TI:TI;0)           298.15 +6.952*T-31963; 6000 N REF0 !


 TYPE_DEFINITION ' GES A_P_D ALTI3_D019 MAGNETIC  -3.0    2.80000E-01 !
 PHASE ALTI3_D019  %'  2 3   1 !
    CONSTITUENT ALTI3_D019  :AL,CO,CR,MO,TI,V : AL,CO,CR,MO,TI,V :  !

   PARAMETER G(ALTI3_D019,AL:AL;0)        298.15 +4*GHCPAL#; 6000 N REF0 !
       PARA G(ALTI3_D019,CO:AL;0) 298.15 +0; 6000 N!
       PARA G(ALTI3_D019,CR:AL;0) 298.15 +0; 6000 N!
       PARA G(ALTI3_D019,MO:AL;0) 298.15 +0; 6000 N!
   PARAMETER G(ALTI3_D019,TI:AL;0)        298.15 +20.833*T+GHCPAL#
  +3*GHSERTI#-113676; 6000 N REF0 !
       PARA G(ALTI3_D019,V:AL;0) 298.15 +0; 6000 N!
       PARA G(ALTI3_D019,AL:CO;0) 298.15 +0; 6000 N!
       PARA G(ALTI3_D019,CO:CO;0) 298.15 +0; 6000 N!
       PARA G(ALTI3_D019,CR:CO;0) 298.15 +0; 6000 N!
       PARA G(ALTI3_D019,MO:CO;0) 298.15 +0; 6000 N!
       PARA G(ALTI3_D019,TI:CO;0) 298.15 +0; 6000 N!
       PARA G(ALTI3_D019,V:CO;0) 298.15 +0; 6000 N!
       PARA G(ALTI3_D019,AL:CR;0) 298.15 +0; 6000 N!
       PARA G(ALTI3_D019,CO:CR;0) 298.15 +0; 6000 N!
       PARA G(ALTI3_D019,CR:CR;0) 298.15 +0; 6000 N!
       PARA G(ALTI3_D019,MO:CR;0) 298.15 +0; 6000 N!
       PARA G(ALTI3_D019,TI:CR;0) 298.15 +0; 6000 N!
       PARA G(ALTI3_D019,V:CR;0) 298.15 +0; 6000 N!
       PARA G(ALTI3_D019,AL:MO;0) 298.15 +0; 6000 N!
       PARA G(ALTI3_D019,CO:MO;0) 298.15 +0; 6000 N!
       PARA G(ALTI3_D019,CR:MO;0) 298.15 +0; 6000 N!
       PARA G(ALTI3_D019,MO:MO;0) 298.15 +0; 6000 N!
       PARA G(ALTI3_D019,TI:MO;0) 298.15 +0; 6000 N!
       PARA G(ALTI3_D019,V:MO;0) 298.15 +0; 6000 N!
   PARAMETER G(ALTI3_D019,AL:TI;0)        298.15 +5.4*T+3*GHCPAL#+GHSERTI#
  -16443; 6000 N REF0 !
       PARA G(ALTI3_D019,CO:TI;0) 298.15 +0; 6000 N!
       PARA G(ALTI3_D019,CR:TI;0) 298.15 +0; 6000 N!
       PARA G(ALTI3_D019,MO:TI;0) 298.15 +0; 6000 N!
   PARAMETER G(ALTI3_D019,TI:TI;0)        298.15 +4*GHSERTI#+20; 6000 N REF0 !
       PARA G(ALTI3_D019,V:TI;0) 298.15 +0; 6000 N!
       PARA G(ALTI3_D019,AL:V;0) 298.15 +0; 6000 N!
       PARA G(ALTI3_D019,CO:V;0) 298.15 +0; 6000 N!
       PARA G(ALTI3_D019,CR:V;0) 298.15 +0; 6000 N!
       PARA G(ALTI3_D019,MO:V;0) 298.15 +0; 6000 N!
       PARA G(ALTI3_D019,TI:V;0) 298.15 +0; 6000 N!
       PARA G(ALTI3_D019,V:V;0) 298.15 +0; 6000 N!
   PARAMETER G(ALTI3_D019,AL,TI:AL;0)     298.15 +86.338*T-269912; 6000 N 
  REF0 !
   PARAMETER G(ALTI3_D019,TI:AL,TI;0)     298.15 +5.318*T-13704; 6000 N REF0 !


 TYPE_DEFINITION ( GES A_P_D BCC_A2 MAGNETIC  -1.0    4.00000E-01 !
 PHASE BCC_A2  %(  2 1   3 !
    CONSTITUENT BCC_A2  :AL,CO,CR,MO,TI,V,VA : VA :  !

   PARAMETER G(BCC_A2,AL:VA;0)            298.15 +GBCCAL#; 6000 N REF0 !
   PARAMETER G(BCC_A2,CO:VA;0)            298.15 +GCOBCC#; 6000 N REF0 !
   PARAMETER TC(BCC_A2,CO:VA;0)           298.15 +1450; 6000 N REF0 !
   PARAMETER BMAGN(BCC_A2,CO:VA;0)        298.15 +1.35; 6000 N REF0 !
   PARAMETER G(BCC_A2,CR:VA;0)            298.15 +GHSERCR#; 6000 N REF0 !
   PARAMETER BMAGN(BCC_A2,CR:VA;0)        298.15 -.01; 6000 N REF0 !
   PARAMETER TC(BCC_A2,CR:VA;0)           298.15 -311.5; 6000 N REF0 !
   PARAMETER G(BCC_A2,MO:VA;0)            298.15 +GHSERMO#; 6000 N REF0 !
   PARAMETER G(BCC_A2,TI:VA;0)            298.15 +GBCCTI#; 6000 N REF0 !
   PARAMETER G(BCC_A2,V:VA;0)             298.15 +GHSERVV#; 6000 N REF0 !
   PARAMETER G(BCC_A2,VA:VA;0)            298.15 +30*T; 6000 N REF0 !
   PARAMETER G(BCC_A2,AL,CO:VA;0)         298.15 -95207+2.52*T; 6000 N REF0 !
   PARAMETER G(BCC_A2,AL,CR:VA;0)         298.15 -10.836*T-52970.7; 3000 N 
  REF0 !
   PARAMETER G(BCC_A2,AL,CR:VA;1)         298.15 -3655.89; 3000 N REF0 !
   PARAMETER G(BCC_A2,AL,MO:VA;0)         298.15 -73113.2883+22.7704371*T; 
  6000 N REF0 !
   PARAMETER G(BCC_A2,AL,MO:VA;1)         298.15 -16584.5446; 6000 N REF0 !
   PARAMETER G(BCC_A2,AL,MO:VA;2)         298.15 -18877.1914; 6000 N REF0 !
   PARAMETER G(BCC_A2,AL,TI:VA;0)         298.15 +39.961*T-132903; 6000 N 
  REF0 !
   PARAMETER G(BCC_A2,AL,TI:VA;1)         298.15 +4890; 6000 N REF0 !
   PARAMETER G(BCC_A2,AL,TI:VA;2)         298.15 +400; 6000 N REF0 !
   PARAMETER G(BCC_A2,AL,V:VA;0)          298.15 +FF740018#*T+FF740017#; 
  6000 N REF0 !
   PARAMETER G(BCC_A2,AL,V:VA;1)          298.15 +FF740020#*T+FF740019#; 
  6000 N REF0 !
   PARAMETER G(BCC_A2,CO,VA:VA;0)         298.15 +126184; 6000 N REF0 !
   PARAMETER G(BCC_A2,CO,CR:VA;0)         298.15 +12652.9-11.0201*T; 6000 N 
  REF0 !
   PARAMETER G(BCC_A2,CO,CR:VA;1)         298.15 -9092.2; 6000 N REF0 !
   PARAMETER G(BCC_A2,CO,MO:VA;0)         298.15 +5000+7.597*T; 6000 N REF0 !
   PARAMETER G(BCC_A2,CO,MO:VA;1)         298.15 -19208.67; 6000 N REF0 !
   PARAMETER TC(BCC_A2,CO,MO:VA;0)        298.15 -3700; 6000 N REF0 !
   PARAMETER BMAGN(BCC_A2,CO,MO:VA;0)     298.15 -3.445; 6000 N REF0 !
   PARAMETER G(BCC_A2,CR,VA:VA;0)         298.15 +100000; 6000 N REF0 !
   PARAMETER G(BCC_A2,CR,MO:VA;0)         298.15 +28890-7.962*T; 6000 N REF0 !
   PARAMETER G(BCC_A2,CR,TI:VA;0)         298.15 -2247.87+9.14144*T; 6000 N 
  REF0 !
   PARAMETER G(BCC_A2,CR,TI:VA;1)         298.15 +198.73; 6000 N REF0 !
   PARAMETER G(BCC_A2,CR,V:VA;0)          298.15 -8253.85-3.61592*T; 6000 N 
  REF0 !
   PARAMETER G(BCC_A2,CR,V:VA;1)          298.15 +7494.82-8.69424*T; 6000 N 
  REF0 !
   PARAMETER G(BCC_A2,CR,V:VA;2)          298.15 -17599.07+10.13142*T; 6000 
  N REF0 !
   PARAMETER G(BCC_A2,CR,V:VA;3)          298.15 +1042.58; 6000 N REF0 !
   PARAMETER G(BCC_A2,MO,TI:VA;0)         298.15 +2000; 6000 N REF0 !
   PARAMETER G(BCC_A2,MO,TI:VA;1)         298.15 -2000; 6000 N REF0 !
   PARAMETER G(BCC_A2,MO,V:VA;0)          298.15 +19245; 6000 N REF0 !
   PARAMETER G(BCC_A2,TI,V:VA;0)          298.15 +6523.17; 6000 N REF0 !
   PARAMETER G(BCC_A2,TI,V:VA;1)          298.15 +2025.39; 6000 N REF0 !


$ THIS PHASE HAS A DISORDERED CONTRIBUTION FROM BCC_A2                  
 TYPE_DEFINITION ) GES AMEND_PHASE_DESCRIPTION BCC_B2 DIS_PART BCC_A2,,,!
 TYPE_DEFINITION * GES A_P_D BCC_B2 MAGNETIC  -1.0    4.00000E-01 !
 PHASE BCC_B2  %)*  3 .5   .5   3 !
    CONSTITUENT BCC_B2  :AL,CO,CR,MO,TI,V,VA : AL,CO,CR,MO,TI,V,VA : VA :  !

   PARAMETER G(BCC_B2,AL:AL:VA;0)         298.15 +0.0; 6000 N REF0 !
   PARAMETER G(BCC_B2,CO:AL:VA;0)         298.15 -90643.5+28.66*T; 6000 N 
  REF0 !